p tw 92 108
1 2
2 13
3 4
4 5
5 9
6 7
7 8
7 9
8 9
9 10
10 11
11 12
11 16
12 14
13 24
14 15
14 16
15 16
16 17
17 18
18 19
18 20
19 20
20 21
21 22
22 23
23 25
24 35
25 26
26 27
27 28
28 29
29 30
30 31
30 32
31 32
31 88
32 33
33 34
34 36
35 46
36 37
36 45
37 38
37 45
38 39
38 41
39 40
39 41
40 41
40 49
41 42
42 43
43 44
44 63
45 47
46 57
47 48
47 60
48 49
48 53
49 50
50 51
51 52
52 56
53 54
54 55
55 56
56 58
57 68
58 59
59 63
60 61
61 62
62 63
63 64
64 65
65 66
66 67
67 69
68 79
69 70
70 71
70 76
71 72
72 73
73 74
74 75
75 81
76 77
77 78
78 80
79 90
79 6
80 81
81 82
82 83
83 84
83 29
84 85
84 29
85 86
86 87
87 29
88 89
89 91
90 3
91 92
